NAME: concorde91
TYPE: TSP
DIMENSION: 25 
EDGE_WEIGHT_TYPE: EUC_2D
NODE_COORD_SECTION
1 39 98
2 67 99
3 53 53
4 23 9
5 63 57
6 54 14
7 72 59
8 78 94
9 17 20
10 79 41
11 96 37
12 89 75
13 95 11
14 17 12
15 15 72
16 15 86
17 65 24
18 67 67
19 67 32
20 21 78
21 19 66
22 48 23
23 78 24
24 78 70
25 53 24
